
Gurobi 9.1.2 (win64, Java) logging started Sun Nov 14 09:50:47 2021

Academic license - for non-commercial use only - expires 2022-10-30
Gurobi Optimizer version 9.1.2 build v9.1.2rc0 (win64)
Thread count: 6 physical cores, 12 logical processors, using up to 12 threads
Optimize a model with 110 rows, 1000 columns and 2000 nonzeros
Model fingerprint: 0xe0b45280
Variable types: 0 continuous, 1000 integer (1000 binary)
Coefficient statistics:
  Matrix range     [1e+00, 1e+03]
  Objective range  [2e+01, 1e+03]
  Bounds range     [1e+00, 1e+00]
  RHS range        [1e+00, 3e+03]
Found heuristic solution: objective 31552.000000
Presolve time: 0.01s
Presolved: 110 rows, 1000 columns, 2000 nonzeros
Variable types: 0 continuous, 1000 integer (1000 binary)
Presolved: 110 rows, 1000 columns, 2000 nonzeros


Root relaxation: objective 4.275696e+04, 180 iterations, 0.00 seconds

    Nodes    |    Current Node    |     Objective Bounds      |     Work
 Expl Unexpl |  Obj  Depth IntInf | Incumbent    BestBd   Gap | It/Node Time

     0     0 42756.9583    0   12 31552.0000 42756.9583  35.5%     -    0s
H    0     0                    41668.000000 42756.9583  2.61%     -    0s
H    0     0                    42454.000000 42756.9583  0.71%     -    0s
H    0     0                    42518.000000 42756.9583  0.56%     -    0s
     0     0 42711.5706    0   22 42518.0000 42711.5706  0.46%     -    0s
H    0     0                    42561.000000 42711.5706  0.35%     -    0s
     0     0 42711.5706    0   25 42561.0000 42711.5706  0.35%     -    0s
     0     0 42690.2461    0   21 42561.0000 42690.2461  0.30%     -    0s
     0     0 42690.2461    0   22 42561.0000 42690.2461  0.30%     -    0s
     0     0 42690.2461    0   19 42561.0000 42690.2461  0.30%     -    0s
     0     0 42690.2461    0    9 42561.0000 42690.2461  0.30%     -    0s
     0     0 42690.2461    0   13 42561.0000 42690.2461  0.30%     -    0s
     0     0 42690.2461    0   19 42561.0000 42690.2461  0.30%     -    0s
     0     0 42690.2461    0   19 42561.0000 42690.2461  0.30%     -    0s
     0     0 42690.2461    0   24 42561.0000 42690.2461  0.30%     -    0s
     0     0 42690.2461    0   16 42561.0000 42690.2461  0.30%     -    0s
H    0     2                    42571.000000 42690.2461  0.28%     -    0s
     0     2 42690.2461    0   14 42571.0000 42690.2461  0.28%     -    0s
H 2033  1758                    42610.000000 42668.3712  0.14%   5.6    1s
H49936 33592                    42620.000000 42667.0741  0.11%   3.8    4s
 54899 35736 42659.0000  179    9 42620.0000 42667.0741  0.11%   3.7    5s
H127040 66686                    42622.000000 42667.0741  0.11%   3.6    9s
 154484 80448 42663.0000  191   16 42622.0000 42667.0741  0.11%   3.5   10s
 321474 211469     cutoff  180      42622.0000 42667.0741  0.11%   3.3   15s
 444624 308933 42635.6970  175   18 42622.0000 42667.0741  0.11%   3.3   20s
 570390 407590 42643.7830  244   11 42622.0000 42667.0741  0.11%   3.3   25s
 698632 509292 42658.8821  217   10 42622.0000 42667.0741  0.11%   3.3   30s
 829302 614394 42667.0741  116   15 42622.0000 42667.0741  0.11%   3.3   35s
 964277 723933 42667.0741  146   17 42622.0000 42667.0741  0.11%   3.2   40s
 1097865 833205 42663.0000  157   18 42622.0000 42667.0741  0.11%   3.2   45s
 1235937 944908 42637.3657  186   18 42622.0000 42667.0741  0.11%   3.2   50s
 1371128 1053902 42664.0822  124   13 42622.0000 42667.0741  0.11%   3.2   55s
 1510297 1167562 42657.2263  191   12 42622.0000 42667.0741  0.11%   3.2   60s
 1652503 1282384     cutoff   90      42622.0000 42667.0741  0.11%   3.2   65s
 1780579 1386152 42656.8534  287   13 42622.0000 42667.0741  0.11%   3.2   70s
 1898062 1480409 42636.4877  301   16 42622.0000 42667.0741  0.11%   3.2   75s
 2045374 1598580 42667.0741   63   17 42622.0000 42667.0741  0.11%   3.2   80s
 2177806 1705061 42653.8632  130   18 42622.0000 42667.0741  0.11%   3.2   85s
 2314672 1816624 42623.3164  305   12 42622.0000 42667.0741  0.11%   3.2   90s
H2417802 541190                    42663.000000 42667.0741  0.01%   3.2   94s
 2427182 545609 42667.0741   93    9 42663.0000 42667.0741  0.01%   3.2   95s

Cutting planes:
  Gomory: 4
  Cover: 8
  MIR: 6
  StrongCG: 5
  Flow cover: 4
  Zero half: 3
  RLT: 6

Explored 2427193 nodes (7688522 simplex iterations) in 95.54 seconds
Thread count was 12 (of 12 available processors)

Solution count 10: 42663 42622 42620 ... 31552

Optimal solution found (tolerance 1.00e-12)
Best objective 4.266300000000e+04, best bound 4.266300000000e+04, gap 0.0000%
